(set-option :produce-proofs true)
(set-info :category "{ crafted }")
(set-info :difficulty "{ 0 }")
(set-logic AUFLIA)
(declare-sort U 0)
(declare-fun h ( Int) Int)
(declare-fun g ( Int) Int)
(declare-fun a () Int)
(assert (! (forall ((x Int)) (not (= (h x) a))) :named IP_0))
(assert (! (forall ((y Int)) (= (h (g y)) y)) :named IP_1))
(check-sat)
(get-interpolants IP_0 IP_1)
(exit)
